;---
; using 8-bit bit-vectors as characters
; check intersection nonemptiness of .Net regexes
; regexA = ^([A-Z]|[a-z]|[0-9])(((\.|\-)?([A-Z]|[a-z]|[0-9])+)*)@(([A-Z]|[a-z]|[0-9])+)(((\.|\-)?([A-Z]|[a-z]|[0-9])+)*)\. (([A-Z]|[a-z])([A-Z]|[a-z])+)\z
; regexB = ^((\w+((\-|\+|\.)\w+)*@\w+((\-|\.)\w+)*\.\w+((\-|\.)\w+)*)\s*[,]{0,1}\s*)+\z
;---
(set-info :status unsat)
(set-option :print-success true)
(set-logic QF_BVRE)

(declare-const regexA (RegEx String))
(declare-const regexB (RegEx String))
(declare-const x String)

(assert (= regexA (re.++ (str.to_re "")(re.++ (re.union (re.range "0" "9")(re.union (re.range "A" "Z") (re.range "a" "z")))(re.++ (re.* (re.++ (re.opt (re.range "-" ".")) (re.+ (re.union (re.range "0" "9")(re.union (re.range "A" "Z") (re.range "a" "z"))))))(re.++ (re.range "@" "@")(re.++ (re.+ (re.union (re.range "0" "9")(re.union (re.range "A" "Z") (re.range "a" "z"))))(re.++ (re.* (re.++ (re.opt (re.range "-" ".")) (re.+ (re.union (re.range "0" "9")(re.union (re.range "A" "Z") (re.range "a" "z"))))))(re.++ (str.to_re (seq.++ "." (seq.++ " " "")))(re.++ (re.++ (re.union (re.range "A" "Z") (re.range "a" "z")) (re.+ (re.union (re.range "A" "Z") (re.range "a" "z")))) (str.to_re "")))))))))))

(assert (= regexB (re.++ (str.to_re "")(re.++ (re.+ (re.++ (re.++ (re.+ (re.union (re.range "0" "9")(re.union (re.range "A" "Z")(re.union (re.range "_" "_")(re.union (re.range "a" "z")(re.union (re.range "\xaa" "\xaa")(re.union (re.range "\xb5" "\xb5")(re.union (re.range "\xba" "\xba")(re.union (re.range "\xc0" "\xd6")(re.union (re.range "\xd8" "\xf6") (re.range "\xf8" "\xff")))))))))))(re.++ (re.* (re.++ (re.union (re.range "+" "+") (re.range "-" ".")) (re.+ (re.union (re.range "0" "9")(re.union (re.range "A" "Z")(re.union (re.range "_" "_")(re.union (re.range "a" "z")(re.union (re.range "\xaa" "\xaa")(re.union (re.range "\xb5" "\xb5")(re.union (re.range "\xba" "\xba")(re.union (re.range "\xc0" "\xd6")(re.union (re.range "\xd8" "\xf6") (re.range "\xf8" "\xff")))))))))))))(re.++ (re.range "@" "@")(re.++ (re.+ (re.union (re.range "0" "9")(re.union (re.range "A" "Z")(re.union (re.range "_" "_")(re.union (re.range "a" "z")(re.union (re.range "\xaa" "\xaa")(re.union (re.range "\xb5" "\xb5")(re.union (re.range "\xba" "\xba")(re.union (re.range "\xc0" "\xd6")(re.union (re.range "\xd8" "\xf6") (re.range "\xf8" "\xff")))))))))))(re.++ (re.* (re.++ (re.range "-" ".") (re.+ (re.union (re.range "0" "9")(re.union (re.range "A" "Z")(re.union (re.range "_" "_")(re.union (re.range "a" "z")(re.union (re.range "\xaa" "\xaa")(re.union (re.range "\xb5" "\xb5")(re.union (re.range "\xba" "\xba")(re.union (re.range "\xc0" "\xd6")(re.union (re.range "\xd8" "\xf6") (re.range "\xf8" "\xff")))))))))))))(re.++ (re.range "." ".")(re.++ (re.+ (re.union (re.range "0" "9")(re.union (re.range "A" "Z")(re.union (re.range "_" "_")(re.union (re.range "a" "z")(re.union (re.range "\xaa" "\xaa")(re.union (re.range "\xb5" "\xb5")(re.union (re.range "\xba" "\xba")(re.union (re.range "\xc0" "\xd6")(re.union (re.range "\xd8" "\xf6") (re.range "\xf8" "\xff"))))))))))) (re.* (re.++ (re.range "-" ".") (re.+ (re.union (re.range "0" "9")(re.union (re.range "A" "Z")(re.union (re.range "_" "_")(re.union (re.range "a" "z")(re.union (re.range "\xaa" "\xaa")(re.union (re.range "\xb5" "\xb5")(re.union (re.range "\xba" "\xba")(re.union (re.range "\xc0" "\xd6")(re.union (re.range "\xd8" "\xf6") (re.range "\xf8" "\xff"))))))))))))))))))))(re.++ (re.* (re.union (re.range "\x09" "\x0d")(re.union (re.range " " " ")(re.union (re.range "\x85" "\x85") (re.range "\xa0" "\xa0")))))(re.++ (re.opt (re.range "," ",")) (re.* (re.union (re.range "\x09" "\x0d")(re.union (re.range " " " ")(re.union (re.range "\x85" "\x85") (re.range "\xa0" "\xa0"))))))))) (str.to_re "")))))

;check that the intersection is nonempty, contains some x
(assert (str.in_re x regexA))
(assert (str.in_re x regexB))
(check-sat)
